# 12746
param n := 30;
param s := 1;
set E :=  (0,3) (0,14) (0,20) (0,21) (0,28) (1,10) (1,24) (1,26) (2,3) (2,7) (2,19) (3,6) (4,9) (4,22) (5,11) (5,20) (6,17) (7,13) (7,18) (7,25) (8,23) (8,29) (9,14) (9,23) (10,24) (11,16) (12,15) (12,22) (20,26) (21,27);
